data;
set K:= K1 K2 K3 K4 K5 K6 K7 ;

set F:= F1 F2 ;

set Q:= Q1 Q2 ;

param T:= 45;
param V: 
	K1  K2  K3  K4  K5  K6  K7  :=
Q1	1   1   1   1   0   0   0   
Q2	0   0   0   0   1   1   1   
; # if resorce k is of type q

param TF:= 
K1 6
K2 6
K3 6
K4 6
K5 12
K6 12
K7 12
; # number of continuous time slots resource can fly

param TR:= 
K1 2
K2 2
K3 2
K4 2
K5 4
K6 4
K7 4
; #  number of continuous time slots resource k needs to rest between flights

param P:= 
K1 36
K2 36
K3 36
K4 36
K5 36
K6 36
K7 36
; #  number of continuous time slots a pilot can be present including rest times for resource k 

param N:= 
K1 4
K2 4
K3 4
K4 4
K5 2
K6 2
K7 1
; # max number of flights resource k can fly in the total time period

param A: 
	K1  K2  K3  K4  K5  K6  K7  :=
1	1   1   1   1   1   1   0   
2	1   1   1   1   1   1   0   
3	1   1   1   1   1   1   0   
4	1   1   1   1   1   1   0   
5	1   1   1   1   1   1   0   
6	1   1   1   1   1   1   0   
7	1   1   1   1   1   1   0   
8	1   1   1   1   1   1   0   
9	1   1   1   1   1   1   0   
10	1   1   1   1   1   1   0   
11	1   1   1   1   1   1   0   
12	1   1   1   1   1   1   0   
13	1   1   1   1   1   1   0   
14	1   1   1   1   1   1   1   
15	1   1   1   1   1   1   1   
16	1   1   1   1   1   1   1   
17	1   1   1   1   1   1   1   
18	1   1   1   1   1   1   1   
19	1   1   1   1   1   1   1   
20	1   1   1   1   1   1   1   
21	1   1   1   1   1   1   1   
22	1   1   1   1   1   1   1   
23	1   1   1   1   1   1   1   
24	1   1   1   1   1   1   1   
25	1   1   1   1   1   1   1   
26	1   1   1   1   1   1   1   
27	1   1   1   1   1   1   1   
28	1   1   1   1   1   1   1   
29	1   1   1   1   1   1   1   
30	1   1   1   1   1   1   1   
31	1   1   1   1   1   1   1   
32	1   1   1   1   1   1   1   
33	1   1   1   1   1   1   1   
34	1   1   1   1   1   1   1   
35	1   1   1   1   1   1   1   
36	1   1   1   1   1   1   1   
37	1   1   1   1   1   1   1   
38	1   1   1   1   1   1   1   
39	1   1   1   1   1   1   1   
40	1   1   1   1   1   1   1   
41	1   1   1   1   1   1   1   
42	1   1   1   1   1   1   1   
43	1   1   1   1   1   1   1   
44	1   1   1   1   1   1   1   
45	1   1   1   1   1   1   1   
; # availability of resorce k in time slot t

param B: 
	F1  F2  :=
Q1	1   0   
Q2	0   0   
; # if front f requires resources of type q

param U: 
	F1  F2  :=
K1	0   0   
K2	0   0   
K3	0   0   
K4	0   0   
K5	2   2   
K6	0   0   
K7	1   1   
; # transit time of resource

param C:= 
K1 900
K2 900
K3 1500
K4 4500
K5 5500
K6 5500
K7 5500
; #  water capacity of resource k

param S:= 
F1 10
F2 10
; # max number of resources that can fly at front f in the same time slot

param D:= 

[*,*,F1 ]:  K1    K2    K3    K4    K5    K6    K7    :=
1           1.55  1.55  1.55  1.24  0.93  0.93  0.93  
2           1.55  1.55  1.55  1.24  0.93  0.93  0.93  
3           1.55  1.55  1.55  1.24  0.93  0.93  0.93  
4           1.55  1.55  1.55  1.24  0.93  0.93  0.93  
5           1.55  1.55  1.55  1.24  0.93  0.93  0.93  
6           1.55  1.55  1.55  1.24  0.93  0.93  0.93  
7           1.55  1.55  1.55  1.24  0.93  0.93  0.93  
8           1.55  1.55  1.55  1.24  0.93  0.93  0.93  
9           1.55  1.55  1.55  1.24  0.93  0.93  0.93  
10          1.55  1.55  1.55  1.24  0.93  0.93  0.93  
11          1.55  1.55  1.55  1.24  0.93  0.93  0.93  
12          1.55  1.55  1.55  1.24  0.93  0.93  0.93  
13          1.55  1.55  1.55  1.24  0.93  0.93  0.93  
14          1.55  1.55  1.55  1.24  0.93  0.93  0.93  
15          1.55  1.55  1.55  1.24  0.93  0.93  0.93  
16          1.55  1.55  1.55  1.24  0.93  0.93  0.93  
17          1.55  1.55  1.55  1.24  0.93  0.93  0.93  
18          1.55  1.55  1.55  1.24  0.93  0.93  0.93  
19          1.55  1.55  1.55  1.24  0.93  0.93  0.93  
20          1.55  1.55  1.55  1.24  0.93  0.93  0.93  
21          1.55  1.55  1.55  1.24  0.93  0.93  0.93  
22          1.55  1.55  1.55  1.24  0.93  0.93  0.93  
23          1.55  1.55  1.55  1.24  0.93  0.93  0.93  
24          1.55  1.55  1.55  1.24  0.93  0.93  0.93  
25          1.48  1.48  1.48  1.18  0.88  0.88  0.88  
26          1.48  1.48  1.48  1.18  0.88  0.88  0.88  
27          1.48  1.48  1.48  1.18  0.88  0.88  0.88  
28          1.48  1.48  1.48  1.18  0.88  0.88  0.88  
29          1.48  1.48  1.48  1.18  0.88  0.88  0.88  
30          1.48  1.48  1.48  1.18  0.88  0.88  0.88  
31          1.48  1.48  1.48  1.18  0.88  0.88  0.88  
32          1.48  1.48  1.48  1.18  0.88  0.88  0.88  
33          1.48  1.48  1.48  1.18  0.88  0.88  0.88  
34          1.55  1.55  1.55  1.24  0.93  0.93  0.93  
35          1.55  1.55  1.55  1.24  0.93  0.93  0.93  
36          1.55  1.55  1.55  1.24  0.93  0.93  0.93  
37          1.55  1.55  1.55  1.24  0.93  0.93  0.93  
38          1.55  1.55  1.55  1.24  0.93  0.93  0.93  
39          1.55  1.55  1.55  1.24  0.93  0.93  0.93  
40          1.55  1.55  1.55  1.24  0.93  0.93  0.93  
41          1.55  1.55  1.55  1.24  0.93  0.93  0.93  
42          1.55  1.55  1.55  1.24  0.93  0.93  0.93  
43          1.55  1.55  1.55  1.24  0.93  0.93  0.93  
44          1.55  1.55  1.55  1.24  0.93  0.93  0.93  
45          1.55  1.55  1.55  1.24  0.93  0.93  0.93  

[*,*,F2 ]:  K1    K2    K3    K4    K5    K6    K7    :=
1           1.77  1.77  1.77  1.41  1.06  1.06  1.06  
2           1.77  1.77  1.77  1.41  1.06  1.06  1.06  
3           1.77  1.77  1.77  1.41  1.06  1.06  1.06  
4           1.77  1.77  1.77  1.41  1.06  1.06  1.06  
5           1.77  1.77  1.77  1.41  1.06  1.06  1.06  
6           1.77  1.77  1.77  1.41  1.06  1.06  1.06  
7           1.77  1.77  1.77  1.41  1.06  1.06  1.06  
8           1.77  1.77  1.77  1.41  1.06  1.06  1.06  
9           1.77  1.77  1.77  1.41  1.06  1.06  1.06  
10          1.77  1.77  1.77  1.41  1.06  1.06  1.06  
11          1.77  1.77  1.77  1.41  1.06  1.06  1.06  
12          1.77  1.77  1.77  1.41  1.06  1.06  1.06  
13          1.77  1.77  1.77  1.41  1.06  1.06  1.06  
14          1.77  1.77  1.77  1.41  1.06  1.06  1.06  
15          1.77  1.77  1.77  1.41  1.06  1.06  1.06  
16          1.77  1.77  1.77  1.41  1.06  1.06  1.06  
17          1.77  1.77  1.77  1.41  1.06  1.06  1.06  
18          1.77  1.77  1.77  1.41  1.06  1.06  1.06  
19          1.77  1.77  1.77  1.41  1.06  1.06  1.06  
20          1.77  1.77  1.77  1.41  1.06  1.06  1.06  
21          1.77  1.77  1.77  1.41  1.06  1.06  1.06  
22          1.77  1.77  1.77  1.41  1.06  1.06  1.06  
23          1.77  1.77  1.77  1.41  1.06  1.06  1.06  
24          1.77  1.77  1.77  1.41  1.06  1.06  1.06  
25          1.68  1.68  1.68  1.34  1.01  1.01  1.01  
26          1.68  1.68  1.68  1.34  1.01  1.01  1.01  
27          1.68  1.68  1.68  1.34  1.01  1.01  1.01  
28          1.68  1.68  1.68  1.34  1.01  1.01  1.01  
29          1.68  1.68  1.68  1.34  1.01  1.01  1.01  
30          1.68  1.68  1.68  1.34  1.01  1.01  1.01  
31          1.68  1.68  1.68  1.34  1.01  1.01  1.01  
32          1.68  1.68  1.68  1.34  1.01  1.01  1.01  
33          1.68  1.68  1.68  1.34  1.01  1.01  1.01  
34          1.77  1.77  1.77  1.41  1.06  1.06  1.06  
35          1.77  1.77  1.77  1.41  1.06  1.06  1.06  
36          1.77  1.77  1.77  1.41  1.06  1.06  1.06  
37          1.77  1.77  1.77  1.41  1.06  1.06  1.06  
38          1.77  1.77  1.77  1.41  1.06  1.06  1.06  
39          1.77  1.77  1.77  1.41  1.06  1.06  1.06  
40          1.77  1.77  1.77  1.41  1.06  1.06  1.06  
41          1.77  1.77  1.77  1.41  1.06  1.06  1.06  
42          1.77  1.77  1.77  1.41  1.06  1.06  1.06  
43          1.77  1.77  1.77  1.41  1.06  1.06  1.06  
44          1.77  1.77  1.77  1.41  1.06  1.06  1.06  
45          1.77  1.77  1.77  1.41  1.06  1.06  1.06  
; # downloads resource k can do at front f in time t if intermediate time slot

param E:= 

[*,*,F1 ]:  K1    K2    K3    K4    K5    K6    K7    :=
1           0.06  0.71  0.16  0.32  0.05  0.05  0.45  
2           0.06  0.71  0.16  0.32  0.05  0.05  0.45  
3           0.06  0.71  0.16  0.32  0.05  0.05  0.45  
4           0.06  0.71  0.16  0.32  0.05  0.05  0.45  
5           0.06  0.71  0.16  0.32  0.05  0.05  0.45  
6           0.06  0.71  0.16  0.32  0.05  0.05  0.45  
7           0.06  0.71  0.16  0.32  0.05  0.05  0.45  
8           0.06  0.71  0.16  0.32  0.05  0.05  0.45  
9           0.06  0.71  0.16  0.32  0.05  0.05  0.45  
10          0.06  0.71  0.16  0.32  0.05  0.05  0.45  
11          0.06  0.71  0.16  0.32  0.05  0.05  0.45  
12          0.06  0.71  0.16  0.32  0.05  0.05  0.45  
13          0.06  0.71  0.16  0.32  0.05  0.05  0.45  
14          0.06  0.71  0.16  0.32  0.05  0.05  0.45  
15          0.06  0.71  0.16  0.32  0.05  0.05  0.45  
16          0.06  0.71  0.16  0.32  0.05  0.05  0.45  
17          0.06  0.71  0.16  0.32  0.05  0.05  0.45  
18          0.06  0.71  0.16  0.32  0.05  0.05  0.45  
19          0.06  0.71  0.16  0.32  0.05  0.05  0.45  
20          0.06  0.71  0.16  0.32  0.05  0.05  0.45  
21          0.06  0.71  0.16  0.32  0.05  0.05  0.45  
22          0.06  0.71  0.16  0.32  0.05  0.05  0.45  
23          0.06  0.71  0.16  0.32  0.05  0.05  0.45  
24          0.06  0.71  0.16  0.32  0.05  0.05  0.45  
25          0.06  0.68  0.15  0.31  0.04  0.04  0.42  
26          0.06  0.68  0.15  0.31  0.04  0.04  0.42  
27          0.06  0.68  0.15  0.31  0.04  0.04  0.42  
28          0.06  0.68  0.15  0.31  0.04  0.04  0.42  
29          0.06  0.68  0.15  0.31  0.04  0.04  0.42  
30          0.06  0.68  0.15  0.31  0.04  0.04  0.42  
31          0.06  0.68  0.15  0.31  0.04  0.04  0.42  
32          0.06  0.68  0.15  0.31  0.04  0.04  0.42  
33          0.06  0.68  0.15  0.31  0.04  0.04  0.42  
34          0.06  0.71  0.16  0.32  0.05  0.05  0.45  
35          0.06  0.71  0.16  0.32  0.05  0.05  0.45  
36          0.06  0.71  0.16  0.32  0.05  0.05  0.45  
37          0.06  0.71  0.16  0.32  0.05  0.05  0.45  
38          0.06  0.71  0.16  0.32  0.05  0.05  0.45  
39          0.06  0.71  0.16  0.32  0.05  0.05  0.45  
40          0.06  0.71  0.16  0.32  0.05  0.05  0.45  
41          0.06  0.71  0.16  0.32  0.05  0.05  0.45  
42          0.06  0.71  0.16  0.32  0.05  0.05  0.45  
43          0.06  0.71  0.16  0.32  0.05  0.05  0.45  
44          0.06  0.71  0.16  0.32  0.05  0.05  0.45  
45          0.06  0.71  0.16  0.32  0.05  0.05  0.45  

[*,*,F2 ]:  K1    K2    K3    K4    K5    K6    K7    :=
1           0.09  0.96  0.30  0.23  0.02  0.06  0.40  
2           0.09  0.96  0.30  0.23  0.02  0.06  0.40  
3           0.09  0.96  0.30  0.23  0.02  0.06  0.40  
4           0.09  0.96  0.30  0.23  0.02  0.06  0.40  
5           0.09  0.96  0.30  0.23  0.02  0.06  0.40  
6           0.09  0.96  0.30  0.23  0.02  0.06  0.40  
7           0.09  0.96  0.30  0.23  0.02  0.06  0.40  
8           0.09  0.96  0.30  0.23  0.02  0.06  0.40  
9           0.09  0.96  0.30  0.23  0.02  0.06  0.40  
10          0.09  0.96  0.30  0.23  0.02  0.06  0.40  
11          0.09  0.96  0.30  0.23  0.02  0.06  0.40  
12          0.09  0.96  0.30  0.23  0.02  0.06  0.40  
13          0.09  0.96  0.30  0.23  0.02  0.06  0.40  
14          0.09  0.96  0.30  0.23  0.02  0.06  0.40  
15          0.09  0.96  0.30  0.23  0.02  0.06  0.40  
16          0.09  0.96  0.30  0.23  0.02  0.06  0.40  
17          0.09  0.96  0.30  0.23  0.02  0.06  0.40  
18          0.09  0.96  0.30  0.23  0.02  0.06  0.40  
19          0.09  0.96  0.30  0.23  0.02  0.06  0.40  
20          0.09  0.96  0.30  0.23  0.02  0.06  0.40  
21          0.09  0.96  0.30  0.23  0.02  0.06  0.40  
22          0.09  0.96  0.30  0.23  0.02  0.06  0.40  
23          0.09  0.96  0.30  0.23  0.02  0.06  0.40  
24          0.09  0.96  0.30  0.23  0.02  0.06  0.40  
25          0.08  0.91  0.29  0.21  0.02  0.06  0.38  
26          0.08  0.91  0.29  0.21  0.02  0.06  0.38  
27          0.08  0.91  0.29  0.21  0.02  0.06  0.38  
28          0.08  0.91  0.29  0.21  0.02  0.06  0.38  
29          0.08  0.91  0.29  0.21  0.02  0.06  0.38  
30          0.08  0.91  0.29  0.21  0.02  0.06  0.38  
31          0.08  0.91  0.29  0.21  0.02  0.06  0.38  
32          0.08  0.91  0.29  0.21  0.02  0.06  0.38  
33          0.08  0.91  0.29  0.21  0.02  0.06  0.38  
34          0.09  0.96  0.30  0.23  0.02  0.06  0.40  
35          0.09  0.96  0.30  0.23  0.02  0.06  0.40  
36          0.09  0.96  0.30  0.23  0.02  0.06  0.40  
37          0.09  0.96  0.30  0.23  0.02  0.06  0.40  
38          0.09  0.96  0.30  0.23  0.02  0.06  0.40  
39          0.09  0.96  0.30  0.23  0.02  0.06  0.40  
40          0.09  0.96  0.30  0.23  0.02  0.06  0.40  
41          0.09  0.96  0.30  0.23  0.02  0.06  0.40  
42          0.09  0.96  0.30  0.23  0.02  0.06  0.40  
43          0.09  0.96  0.30  0.23  0.02  0.06  0.40  
44          0.09  0.96  0.30  0.23  0.02  0.06  0.40  
45          0.09  0.96  0.30  0.23  0.02  0.06  0.40  
; # downloads resource k can do at front f in time t if starting or ending flight

param W: 
	F1        F2        :=
1	1077.64   580.27    
2	4310.55   2321.07   
3	4310.55   2321.07   
4	4310.55   2321.07   
5	4310.55   2321.07   
6	4310.55   2321.07   
7	4310.55   2321.07   
8	4310.55   2321.07   
9	4310.55   2321.07   
10	4310.55   2321.07   
11	4310.55   2321.07   
12	4310.55   2321.07   
13	4310.55   2321.07   
14	4310.55   2321.07   
15	4310.55   2321.07   
16	4310.55   2321.07   
17	4310.55   2321.07   
18	4310.55   2321.07   
19	1915.80   1031.59   
20	1915.80   1031.59   
21	1915.80   1031.59   
22	1915.80   1031.59   
23	1915.80   1031.59   
24	1915.80   1031.59   
25	1915.80   1031.59   
26	1915.80   1031.59   
27	1915.80   1031.59   
28	1915.80   1031.59   
29	1915.80   1031.59   
30	1915.80   1031.59   
31	1915.80   1031.59   
32	1915.80   1031.59   
33	1915.80   1031.59   
34	1915.80   1031.59   
35	1915.80   1031.59   
36	1915.80   1031.59   
37	1915.80   1031.59   
38	1915.80   1031.59   
39	1915.80   1031.59   
40	1915.80   1031.59   
41	1915.80   1031.59   
42	1915.80   1031.59   
43	1915.80   1031.59   
44	1915.80   1031.59   
45	478.95    257.90    
; # water needed at front f in time slot t

param M := 100000000; 

param a1:= 10000000;

param a2:= 100;

param a3:= 0.0001;
